StudentsNr = 10;
InstructorsNr = 13;
DaysNr = 1;
SlotsPerDay = 10;
AvailabilitySlotsLenght = 2;
RoomNr = 2;
ProgrammNr = 2;
DegreeNr = 1;
RolesNr = 2;
CoursesNr = 5;
InstructorsProgramm = [{1, 2}, {1, 2}, {1}, {1}, {1, 2}, {2}, {1}, {2}, {1, 2}, {1, 2}, {2}, {1, 2}, {1}];
InstructorRolesPerProgramm = [|{9, 10, 12, 13}, {4, 5, 7}|{8, 9, 10, 11, 12}, {5, 8}|];
InstructorsAvailability = [|1, 1, 0, 0, 1, |0, 0, 1, 1, 1, |0, 1, 1, 1, 1, |0, 1, 1, 1, 1, |1, 1, 1, 1, 1, |0, 0, 1, 0, 1, |1, 1, 1, 0, 1, |0, 1, 1, 1, 1, |1, 1, 1, 1, 1, |1, 1, 0, 0, 1, |1, 1, 1, 0, 1, |0, 0, 0, 0, 1, |0, 1, 0, 1, 1|];
StudentsProgramm = [2, 1, 1, 1, 2, 2, 2, 2, 2, 2];
StudentsDegree = [1, 1, 1, 1, 1, 1, 1, 1, 1, 1];
StudentsSupervisorId = [2, 3, 13, 5, 9, 10, 12, 9, 11, 6];
StudentsCourseIds = [{1, 2}, {2, 3}, {2, 3}, {1, 5}, {1, 5}, {3, 4}, {1, 3}, {2, 4}, {1, 3}, {1, 3}];
StudentsAvailability = [|1, 1, 1, 1, 1, |1, 1, 1, 1, 1, |0, 1, 1, 1, 1, |1, 1, 1, 1, 1, |1, 1, 1, 0, 0, |0, 0, 0, 0, 1, |0, 1, 0, 1, 1, |1, 1, 1, 1, 1, |1, 1, 1, 1, 1, |1, 1, 1, 1, 1|];
TheoryticalMinCard = [0, 0, 0, 0, 0, 0, 0, 0, 0, 1];
CoursesInstructorIds = [{2, 8, 9, 10, 11, 12}, {1, 2, 3, 5, 6, 7, 8, 9, 11, 12}, {3, 4, 5, 8, 9, 13}, {1, 3, 5, 6, 7, 9, 10, 11}, {1, 9, 11, 13}];
RolesDemands = [1, 2];
RolesContinuity = [];
ExamLen = [2, 2, 2, 2, 2, 2, 2, 2, 2, 2];
LunchTsMinLen = 2;
LunchStarts = [5..6];
SupervisorAvailable = 5;
OptimalLunchLenght = [1, 3];
OptimalStartTs = [0, 1];
OptimalFinishTs = [0, 9];
MinimizeRooms = 400;
RolesSoftContinuity = [|1, 2|1, 1|];
SameDegreeInRoom = 20;
Mergeability = 1;
